10	5	2	0
0	1	11	2	9	4	1	8	7	3	6	10	5	11	[0 0 0]	[0 0 0]	[0 0 0]	[0 0 0]	[0 0 0]	[0 0 0]	[0 0 0]	[0 0 0]	[0 0 0]	[0 0 0]	[0]
1	3	2	11	3	[5 6 6]	[-2 13 14 5 8 -4 7 2 10]
2	3	4	11	6	7	10	[7 7 1]	[-13 -26 -21 -11 -24 -22 -24 -23 -11]	[4 10 16 -4 17 -4 0 2 1]	[-3 9 19 9 -2 3 0 0 1]
3	3	4	9	1	11	4	[10 9 -2 9 1 3 0 17 -3]	[-4 -2 -5 -11 -7 -5 -7 -4 -1]	[4 5 7]	[3 9 0 6 12 8 -5 8 -3]
4	3	2	6	11	[8 0 0 22 26 12 13 -3 9]	[3 9 5]
5	3	1	8	[0 0 0 1 2 0 0 3 2]
6	3	2	2	11	[4 6 3 30 15 16 4 9 4]	[4 10 3]
7	3	2	11	5	[8 4 6]	[8 10 -3 9 10 5 13 0 4]
8	3	3	7	5	11	[-14 -13 -9 -11 -8 -9 -13 -13 -10]	[-15 -15 -9 -4 -5 -10 -5 -12 -8]	[5 6 3]
9	3	1	11	[6 9 7]
10	3	1	11	[9 2 7]
11	1	0
0	1	0	0	0	0	0	0	0	0
1	1	5	5	4	1	1	2	5	1
	2	6	5	4	1	1	2	5	1
	3	6	5	4	1	1	2	5	1
2	1	7	1	2	3	5	4	1	3
	2	7	1	2	3	5	4	1	3
	3	1	1	2	3	5	4	1	3
3	1	4	4	3	1	2	4	3	2
	2	5	4	3	1	2	4	3	2
	3	7	4	3	1	2	4	3	2
4	1	3	5	1	1	4	2	2	4
	2	9	5	1	1	4	2	2	4
	3	5	5	1	1	4	2	2	4
5	1	3	3	1	5	5	4	5	3
	2	1	3	1	5	5	4	5	3
	3	1	3	1	5	5	4	5	3
6	1	4	1	5	5	5	3	4	4
	2	10	1	5	5	5	3	4	4
	3	3	1	5	5	5	3	4	4
7	1	8	5	5	4	1	3	5	2
	2	4	5	5	4	1	3	5	2
	3	6	5	5	4	1	3	5	2
8	1	5	2	5	4	4	2	2	2
	2	6	2	5	4	4	2	2	2
	3	3	2	5	4	4	2	2	2
9	1	6	5	1	4	3	4	5	3
	2	9	5	1	4	3	4	5	3
	3	7	5	1	4	3	4	5	3
10	1	9	2	2	3	1	1	1	4
	2	2	2	2	3	1	1	1	4
	3	7	2	2	3	1	1	1	4
11	1	0	0	0	0	0	0	0	0
12	11	11	10	10	33	61
